c A SAT instance generated from a 3-CNF formula that had 22 clauses and 11 variables
p cnf 11 22
-7 -6 -11 0
7 -3 -4 0
1 -3 5 0
-2 -5 -11 0
4 11 1 0
-1 -6 2 0
-9 2 1 0
-10 -1 -9 0
-7 2 3 0
3 -8 -2 0
7 4 -1 0
-9 -8 -1 0
-8 -5 -1 0
6 -1 -5 0
9 -11 4 0
11 10 4 0
-3 -1 6 0
-11 3 10 0
1 3 8 0
-7 4 3 0
-3 4 10 0
7 2 -4 0
